language ESSENCE' 1.0
$ minion Nodes: 14
$ minion TotalTime: 0.007529
$ Savile Row TotalTime: 0.823
letting x_ExplicitVarSize_tuple2_ExplicitVarSize_tuple2 be [[1, 1], 
[1, 1], 
[1, 1], 
[1, 2]]
letting x_ExplicitVarSize_tuple1 be [0, 0, 0, 1]
letting x_ExplicitVarSize_tuple2_ExplicitVarSize_tuple1 be [[0, 1], 
[0, 1], 
[0, 1], 
[0, 1]]
